NAME          DCAP_3_4_2_300_SS245
ROWS
 N  OBJ
 L  CON1
 L  CON2
 L  CON3
 L  CON4
 L  CON5
 L  CON6
 L  CON7
 L  CON8
 L  CON9
 L  CON10
 L  CON11
 L  CON12
 E  CON13
 E  CON14
 E  CON15
 E  CON16
 E  CON17
 E  CON18
 E  CON19
 E  CON20
COLUMNS
    x[1,1]    OBJ       6.180167      CON1      1.000000    
    x[1,1]    CON7      -1.000000     CON8      -1.000000   
    x[1,2]    OBJ       5.039546      CON2      1.000000    
    x[1,2]    CON8      -1.000000   
    x[2,1]    OBJ       6.732585      CON3      1.000000    
    x[2,1]    CON9      -1.000000     CON10     -1.000000   
    x[2,2]    OBJ       7.443064      CON4      1.000000    
    x[2,2]    CON10     -1.000000   
    x[3,1]    OBJ       6.563535      CON5      1.000000    
    x[3,1]    CON11     -1.000000     CON12     -1.000000   
    x[3,2]    OBJ       6.054841      CON6      1.000000    
    x[3,2]    CON12     -1.000000   
    MARKER    'MARKER'                'INTORG'
    u[1,1]    OBJ       48.076654     CON1      -1.000000   
    u[1,2]    OBJ       49.466655     CON2      -1.000000   
    u[2,1]    OBJ       49.996186     CON3      -1.000000   
    u[2,2]    OBJ       32.230043     CON4      -1.000000   
    u[3,1]    OBJ       20.066487     CON5      -1.000000   
    u[3,2]    OBJ       27.484319     CON6      -1.000000   
    y[1,1,1]  OBJ       7.036052      CON7      1.173149    
    y[1,1,1]  CON13     1.000000    
    y[1,1,2]  OBJ       5.934274      CON8      0.718475    
    y[1,1,2]  CON14     1.000000    
    y[1,2,1]  OBJ       7.985712      CON7      1.396662    
    y[1,2,1]  CON15     1.000000    
    y[1,2,2]  OBJ       5.169897      CON8      1.462187    
    y[1,2,2]  CON16     1.000000    
    y[1,3,1]  OBJ       5.041274      CON7      0.973250    
    y[1,3,1]  CON17     1.000000    
    y[1,3,2]  OBJ       7.241565      CON8      0.599385    
    y[1,3,2]  CON18     1.000000    
    y[1,4,1]  OBJ       8.487286      CON7      1.043831    
    y[1,4,1]  CON19     1.000000    
    y[1,4,2]  OBJ       8.317463      CON8      1.357440    
    y[1,4,2]  CON20     1.000000    
    y[2,1,1]  OBJ       6.240898      CON9      1.173149    
    y[2,1,1]  CON13     1.000000    
    y[2,1,2]  OBJ       8.591074      CON10     0.718475    
    y[2,1,2]  CON14     1.000000    
    y[2,2,1]  OBJ       9.696090      CON9      1.396662    
    y[2,2,1]  CON15     1.000000    
    y[2,2,2]  OBJ       5.315269      CON10     1.462187    
    y[2,2,2]  CON16     1.000000    
    y[2,3,1]  OBJ       5.367614      CON9      0.973250    
    y[2,3,1]  CON17     1.000000    
    y[2,3,2]  OBJ       6.600710      CON10     0.599385    
    y[2,3,2]  CON18     1.000000    
    y[2,4,1]  OBJ       9.133010      CON9      1.043831    
    y[2,4,1]  CON19     1.000000    
    y[2,4,2]  OBJ       7.670834      CON10     1.357440    
    y[2,4,2]  CON20     1.000000    
    y[3,1,1]  OBJ       8.498290      CON11     1.173149    
    y[3,1,1]  CON13     1.000000    
    y[3,1,2]  OBJ       9.421085      CON12     0.718475    
    y[3,1,2]  CON14     1.000000    
    y[3,2,1]  OBJ       8.798986      CON11     1.396662    
    y[3,2,1]  CON15     1.000000    
    y[3,2,2]  OBJ       9.154903      CON12     1.462187    
    y[3,2,2]  CON16     1.000000    
    y[3,3,1]  OBJ       8.557651      CON11     0.973250    
    y[3,3,1]  CON17     1.000000    
    y[3,3,2]  OBJ       7.898263      CON12     0.599385    
    y[3,3,2]  CON18     1.000000    
    y[3,4,1]  OBJ       9.486239      CON11     1.043831    
    y[3,4,1]  CON19     1.000000    
    y[3,4,2]  OBJ       6.996079      CON12     1.357440    
    y[3,4,2]  CON20     1.000000    
    z[1,1]    OBJ       531.385424    CON13     1.000000    
    z[1,2]    OBJ       919.696296    CON14     1.000000    
    z[2,1]    OBJ       505.457241    CON15     1.000000    
    z[2,2]    OBJ       725.212335    CON16     1.000000    
    z[3,1]    OBJ       608.912157    CON17     1.000000    
    z[3,2]    OBJ       926.042462    CON18     1.000000    
    z[4,1]    OBJ       612.382545    CON19     1.000000    
    z[4,2]    OBJ       937.633358    CON20     1.000000    
    MARKER    'MARKER'                 'INTEND'
RHS
    RHS       CON1      -0.000000     CON2      -0.000000   
    RHS       CON3      -0.000000     CON4      -0.000000   
    RHS       CON5      -0.000000     CON6      -0.000000   
    RHS       CON7      -0.000000     CON8      -0.000000   
    RHS       CON9      -0.000000     CON10     -0.000000   
    RHS       CON11     -0.000000     CON12     -0.000000   
    RHS       CON13     1.000000      CON14     1.000000    
    RHS       CON15     1.000000      CON16     1.000000    
    RHS       CON17     1.000000      CON18     1.000000    
    RHS       CON19     1.000000      CON20     1.000000    
BOUNDS
 BV BOUND     u[1,1]  
 BV BOUND     u[1,2]  
 BV BOUND     u[2,1]  
 BV BOUND     u[2,2]  
 BV BOUND     u[3,1]  
 BV BOUND     u[3,2]  
 BV BOUND     y[1,1,1]
 BV BOUND     y[1,1,2]
 BV BOUND     y[1,2,1]
 BV BOUND     y[1,2,2]
 BV BOUND     y[1,3,1]
 BV BOUND     y[1,3,2]
 BV BOUND     y[1,4,1]
 BV BOUND     y[1,4,2]
 BV BOUND     y[2,1,1]
 BV BOUND     y[2,1,2]
 BV BOUND     y[2,2,1]
 BV BOUND     y[2,2,2]
 BV BOUND     y[2,3,1]
 BV BOUND     y[2,3,2]
 BV BOUND     y[2,4,1]
 BV BOUND     y[2,4,2]
 BV BOUND     y[3,1,1]
 BV BOUND     y[3,1,2]
 BV BOUND     y[3,2,1]
 BV BOUND     y[3,2,2]
 BV BOUND     y[3,3,1]
 BV BOUND     y[3,3,2]
 BV BOUND     y[3,4,1]
 BV BOUND     y[3,4,2]
 BV BOUND     z[1,1]  
 BV BOUND     z[1,2]  
 BV BOUND     z[2,1]  
 BV BOUND     z[2,2]  
 BV BOUND     z[3,1]  
 BV BOUND     z[3,2]  
 BV BOUND     z[4,1]  
 BV BOUND     z[4,2]  
ENDATA
